# A column of water is placed in a container and allowed to collapse unter the
# influence of gravity. Several solid objects are also placed in the container.
# The water flow pushes the solid objects around until the sytem comes to halt due to
# viscous damping. The solid objects have a lower mass density than water and finally float on
# the water surface.
#
# Water is modelled using the Updated Lagrangian formalism. Solid bodies are modelled using the
# Total Lagrangian formalism. Contact forces between container, solid bodies, and water prevent
# mutual penetration of these physical entities.

variable        l0 equal 0.05 # initial particle lattice spacing
variable        rho_water equal 1000 # mass density water
variable        rho_obj equal 300 # mass density solid objects
variable        h equal 2.5*${l0} # SPH kernel diameter
variable        c0 equal 10.0 # speed of sound for water
variable        E equal 5*${c0}*${c0}*${rho_water} # Young's modulus for solid objects
variable        sigma_yield equal 0.1*${E} # plastic yield stress for solid objects
variable        contact_stiffness equal 5*${c0}^2*${rho_water} # contact force amplitude
variable        skin equal ${h} # Verlet list range
variable        vol_one equal ${l0}^2 # initial particle volume for 2d simulation

units		si
dimension       2
boundary        sm sm p
atom_style      smd
neighbor        ${skin} bin
neigh_modify    every 5 delay 0 check yes
comm_modify     vel yes
newton          off
atom_modify     map array
comm_style      tiled

# create simulation box, a container, and a water column
region          box block 0 6 0 4 -0.01 0.01 units box
create_box      3 box
region          water block 0.25 1 0.25 4 EDGE EDGE units box
region          container block 0.15 5.85 0.15 4 -0.01 0.01 units box side out # container 
lattice         sq ${l0}
create_atoms    1 region water
group           water type 1
create_atoms    3 region container
group           container type 3

# create some solid objects to be pushed around
region          obj1 prism 2 2.6 0.25 0.85 EDGE EDGE 0.3 0 0 units box
region          obj2 block 3 3.6 0.25 0.85 EDGE EDGE units box
region          obj3 sphere 4.3 0.5 0 0.25 units box
create_atoms    2 region obj1
create_atoms    2 region obj2
create_atoms    2 region obj3
group           solids type 2
group           tlsph type 2

# initialize particle properties
set             group all diameter ${h}
set             group all smd_contact_radius ${l0}
set             group all volume  ${vol_one}
set             group all smd_mass_density ${rho_water}
set             group solids smd_mass_density ${rho_obj}

# set pair styles
pair_style      hybrid/overlay ulsph *DENSITY_CONTINUITY *VELOCITY_GRADIENT *NO_GRADIENT_CORRECTION &
                               tlsph smd/hertz 1.5
pair_coeff      1 1 ulsph *COMMON ${rho_water} ${c0} 0.1 1 0 &
		*EOS_TAIT 7.0 &
	        *END
pair_coeff      2 2 tlsph *COMMON ${rho_obj} ${E} 0.3 0.5 0.0 10 1.0 &
                *LINEAR_PLASTICITY ${sigma_yield} 0 &
		*EOS_LINEAR &
                *END
pair_coeff      3 3 none
pair_coeff      1 2 smd/hertz ${contact_stiffness}
pair_coeff      1 3 smd/hertz ${contact_stiffness}
pair_coeff      2 3 smd/hertz ${contact_stiffness}
pair_coeff      2 2 smd/hertz ${contact_stiffness}

compute         eint all smd/internal_energy
compute         alleint all reduce sum c_eint
compute         contact_radius all smd/contact_radius
compute         S solids smd/tlsph_stress
compute         nn water smd/ulsph_num_neighs
compute         epl solids smd/plastic_strain
compute         hgerr solids smd/hourglass_error
compute         vol all smd/volume
compute         rho all smd/rho

fix             gfix all gravity -9.81 vector 0 1 0 # add gravity
variable        etot equal pe+ke+c_alleint+f_gfix # total energy of the system
fix             dtfix all smd/adjust_dt 0.1 # compute stable time increment
fix             integration_fix_water water smd/integrate_ulsph adjust_radius 1.01 10 15 xsph
fix             integration_fix_solids solids smd/integrate_tlsph xsph
fix             balance_fix all balance 1000 0.9 rcb # load balancing for MPI

thermo          100
thermo_style    custom step ke pe v_etot c_alleint f_dtfix dt
thermo_modify   lost ignore
dump            dump_id all custom 100 dump.LAMMPS id type x y &
                fx fy vx vy c_eint c_contact_radius mol &
                c_S[1] c_S[2] c_S[4] mass radius c_epl c_hgerr c_vol c_rho c_nn proc
dump_modify     dump_id first yes

run             84200
dump_modify     dump_id every 1
run 100


#>>========>>========>>========>>========>>========>>========>>========>>========
