# uniaxial compression with frictionless plates
# 
#
variable        height equal 100 # lattice units
variable        width equal 100 # lattice units
variable        l0 equal 1
variable        yadd equal 5 # lattice units
variable        rho equal 1.0e-6
variable        h equal 2.01*${l0}
variable        Kresin equal 1 # bulk modulus of resin
variable        Kfib equal 1 # bulk modulus of fibres
variable        smax equal 1.0
variable        artvisc equal 1.0
variable        nrun equal 10000 # run this many time steps
# ----
variable        cr equal 0.5*${l0}
variable        c0 equal sqrt(${Kresin}/${rho})
variable        dt equal 0.5*0.125*${h}/${c0}
print           "sound speed is ${c0}, CFL timestep is ${dt}"
variable        skin equal ${h} # Verlet list range

variable        x0 equal 0-5
variable        y0 equal 0-5
variable        x1 equal ${width}+5
variable        y1 equal ${height}+5

units		si
dimension       2
boundary        p s p
atom_style      smd
neighbor        ${skin} bin
neigh_modify    every 10 delay 0 check yes
comm_modify     vel yes
newton          off
atom_modify     map array

lattice         sq ${l0}
region          box block  ${x0} ${x1}  ${y0} ${y1} -0.1 0.1 units lattice
create_box      2 box
create_atoms    1 region box
include         set_fiber_regions.lmp
group           resin type 1
group           fibres type 2

variable        vol_one equal ${l0}^2
set             group all volume ${vol_one}
set             group all diameter ${h}
set             group all smd_contact_radius ${cr}
set             group all smd_mass_density ${rho}

####################################################################################################################################
# INTERACTION PAIR STYLE
####################################################################################################################################
## PAIR STYLE 1: ONLY FLUID, FOR VERIFYING VISCOSITY
#pair_style      ulsph *DENSITY_CONTINUITY *VELOCITY_GRADIENT *GRADIENT_CORRECTION
## 1.0e-4 entspricht 100 Pa s
##                           rho.ref c0    Q1  Cv  hg
#pair_coeff      1 1 *COMMON ${rho}  ${c0} ${artvisc} 0.0 0.0 &
#		    *EOS_TAIT 7 &
#		    *END
#pair_coeff      2 2 *COMMON ${rho}  ${c0} ${artvisc} 0.0 0.0 &
#		    *EOS_TAIT 7 &
#		    *END
#pair_coeff      1 2 *CROSS *END

pair_style      hybrid/overlay ulsph *DENSITY_CONTINUITY *VELOCITY_GRADIENT *GRADIENT_CORRECTION smd/peri_pmb
#                           rho.ref c0          Q1         Cv  hg
pair_coeff      1 1 ulsph *COMMON ${rho}  ${c0} ${artvisc} 0.0 00.0 &
		    *EOS_TAIT 7 &
		    *VISCOSITY_NEWTON 1.0e-4 &
		    *END
pair_coeff      2 2 ulsph *COMMON ${rho}  ${c0} ${artvisc} 0.0 0.0 &
		    *EOS_TAIT 7 &
		    *VISCOSITY_NEWTON 1.0e-4 &
		    *END
pair_coeff      1 2 ulsph *CROSS *END
pair_coeff      2 2 smd/peri_pmb ${Kfib} ${smax} -1 0 1.0

####################################################################################################################################
# COMPUTES FOR ACCESSING INTEGRATION POINT QTYS
####################################################################################################################################
compute         eint all smd/internal_energy
compute         rho all smd/rho
compute         alleint all reduce sum c_eint
variable        etot equal ke+c_alleint
compute         contact_radius all smd/contact_radius
compute         fS all smd/ulsph_stress
compute         aS all stress/atom NULL pair
compute         nn all smd/ulsph_num_neighs
compute         edot all smd/ulsph_strain_rate
variable        devxy atom c_aS[4]
variable        gammadot atom c_edot[4]
compute         strain all smd/ulsph_strain
compute         peatom all pe/atom
compute         effm all smd/ulsph_effm


####################################################################################################
# TIME INTEGRATION
####################################################################################################
timestep        ${dt}
fix             dtfix all smd/adjust_dt 0.1
fix             integration_fix all smd/integrate_ulsph adjust_radius 1.01 15 20
variable        t equal f_dtfix

####################################################################################################
# WALLS
####################################################################################################
variable        initial_height equal ${y1}-${y0}
variable        deform_rate equal 0.2 #units 1/ms
variable        deform_velocity equal ${deform_rate}*${initial_height}
variable        deform_velocity_half equal 0.5*${deform_velocity}

variable        top_displacement equal -f_dtfix*${deform_velocity_half}
variable        bot_displacement equal  f_dtfix*${deform_velocity_half}
variable        wall_pos_hi equal ${y1}+v_top_displacement+1.00*${l0}
variable        wall_pos_lo equal ${y0}+v_bot_displacement-1.00*${l0}
fix             walls all wall/harmonic yhi v_wall_pos_hi 1.0 ${l0} ${l0}  ylo v_wall_pos_lo 1.0 ${l0} ${l0} units box
variable        fhi equal f_walls[1]
variable        flo equal f_walls[2]
variable        traction equal 0.5*(v_fhi-v_flo)/${width}

####################################################################################################
# PBC in x
####################################################################################################
variable        current_height equal ${initial_height}-f_dtfix*${deform_velocity} # v_wall_pos_hi-v_wall_pos_lo
variable        initial_width equal lx
variable        A0 equal ${current_height}*${initial_width}
variable        x_velocity equal ${deform_velocity}*${A0}/(v_current_height*v_current_height)
variable        x_displacement equal (${A0}/v_current_height)-${initial_width}
variable        current_width equal ${initial_width}+v_x_displacement
variable        current_area equal v_current_width*v_current_height
fix             pbc_fix all deform 1 x variable v_x_displacement v_x_velocity remap v units box

####################################################################################################
# OUTPUT STATUS, DUMP AND HISTORY FILE
####################################################################################################
variable         volfrac equal count(fibres)*${vol_one}/(lx*ly) # fibre volume fraction in relevant (sheared) domain
print            "fiber volume fraction is ${volfrac}"

variable        strain equal -(v_current_height-${initial_height})/${initial_height}
variable        traction equal (v_fhi-v_flo)/${initial_width}
fix             extra all print 100 "$t ${strain} ${traction} ${wall_pos_hi} ${wall_pos_lo} ${flo} ${fhi} " file time_traction.dat screen no

thermo          100
thermo_style    custom step dt f_dtfix v_strain v_fhi v_flo v_current_width v_current_height v_current_area
thermo_modify   lost ignore

variable        dumpFreq equal round(${nrun}/100)
dump            dump_id all custom ${dumpFreq} dump.LAMMPS id type x y z & 
                fx fy fz vx vy vz c_eint &
                c_contact_radius mol c_rho &
                c_fS[1] c_fS[2] c_fS[4]&
                c_edot[1] c_edot[2] c_edot[4] c_nn c_peatom radius &
                c_strain[1] c_strain[2] c_strain[4] c_effm
dump_modify     dump_id first yes

####################################################################################################
# ADDITIONAL FIXES 
####################################################################################################
fix             balance_fix all balance 10000 0.9 shift xy 10 1.0 out tmp.balance

####################################################################################################
# RUN THE SHIT 
####################################################################################################
#balance         1.0 shift xy 20 1.0
run             ${nrun}




