####################################################################################################
#
# combined TLSPH / ULSPH example
#
# A column of water is placed in a container and allowed to collapse unter the
# influence of gravity. Several solid objects are also placed in the container.
# The water flow pushes the solid objects around until the sytem comes to halt due to
# viscous damping. The solid objects have a lower mass density than water and finally float on
# the water surface.
#
# Water is modelled using the Updated Lagrangian formalism. Solid bodies are modelled using the
# Total Lagrangian formalism. Contact forces between container, solid bodies, and water prevent
# mutual penetration of these physical entities.
#
# unit sytem: GPa / mm / ms
#
####################################################################################################

####################################################################################################
# MATERIAL PARAMETERS
####################################################################################################
variable        rho_water equal 1000 # mass density water
variable        rho_obj equal 300 # mass density solid objects
variable        c0 equal 63.0 # speed of sound for water
variable        K equal  ${c0}*${c0}*${rho_water} # Young's modulus for solid objects
variable        nu equal 0.3 # Poisson ratio for solid objects
variable        G equal 3*${K}*(1-2*${nu})/(2*(1+${nu}))
variable        sigma_yield equal 1.1*${G} # plastic yield stress for solid objects
variable        hardening_parameter equal 0 # plastic hardening parameter for solid objects
variable        contact_stiffness equal 100*${c0}^2*${rho_water} # contact force amplitude
variable        q1 equal 0.06 # artificial viscosity
variable        q2 equal 0.0 # artificial viscosity
variable        Hg equal 10 # Hourglass control coefficient for solid objects
variable        Cp equal 1.0 # heat capacity -- not used here
variable        contact_scale equal 1.0 # scale factor to increase contact gap between bodies

####################################################################################################
# INITIALIZE LAMMPS
####################################################################################################
units		si
dimension       2
boundary        f f p
atom_style      smd
neigh_modify    every 5 delay 0 check yes binsize 0.1 exclude type 2 2
comm_modify     vel yes cutoff 0.1
newton          off
atom_modify     map hash
comm_style      tiled

####################################################################################################
# CREATE SIMULATION BOX
####################################################################################################
# create simulation box, a container, and a water column
variable        l0 equal 0.05 # initial particle lattice spacing
region          box block -1.1 6.1 -1.1 8.1 -0.01 0.01 units box
create_box      2 box

####################################################################################################
# DEFINE BOUNDARY CONDITIONS
#
# note that the the particles constituting the container are simply not integrated in time,
# thus these particles never move. This is equivalent to a fixed displacement boundary condition.
####################################################################################################
fix             gfix all gravity -9.81 vector 0 1 0 # add gravity

####################################################################################################
# CREATE MOVING OBJECTS
####################################################################################################
region          water block 0.25 1 0.25 4 EDGE EDGE units box
lattice         sq ${l0}
create_atoms    1 region water
group           water type 1

####################################################################################################
# DISCRETIZATION PARAMETERS
####################################################################################################
variable        h equal 2.5*${l0} # SPH kernel diameter
variable        vol_one equal ${l0}^2 # initial particle volume for 2d simulation
variable        contact_radius equal ${l0}/2
set             group all diameter ${h}
set             group all smd_contact_radius ${contact_radius}
set             group all volume  ${vol_one}
set             group all smd_mass_density ${rho_water}
variable        skin equal ${h} # Verlet list range
neighbor        ${skin} bin


####################################################################################################
# LOAD STL SURFACE
####################################################################################################
smd_create/tri_boundary boundary.stl 2 65535
group           container type 2

####################################################################################################
# INTERACTION PHYSICS / MATERIAL MODEL
# 3 different pair styles are used:
#     - updated Lagrangian SPH for water
#     - total Lagrangian SPH for solid objects
#     - a repulsive Hertzian potential for contact forces between different physical bodies
####################################################################################################
pair_style      hybrid/overlay smd/ulsph *DENSITY_CONTINUITY *VELOCITY_GRADIENT *NO_GRADIENT_CORRECTION &
                               smd/tri_surface ${contact_scale}
pair_coeff      1 1 smd/ulsph *COMMON ${rho_water} ${c0} ${q1} ${Cp} 0 &
		*EOS_TAIT 2.0 &
	        *END
pair_coeff      2 2 none
pair_coeff      1 2 smd/tri_surface ${contact_stiffness}

####################################################################################################
# TIME INTEGRATION
####################################################################################################
fix             dtfix all smd/adjust_dt 0.1 # dynamically adjust time increment every step
fix             integration_fix_water water smd/integrate_ulsph adjust_radius 1.1 10 15

####################################################################################################
# SPECIFY TRAJECTORY OUTPUT
####################################################################################################
compute         eint all smd/internal_energy
compute         contact_radius all smd/contact_radius
compute         vol all smd/volume
compute         rho all smd/rho
compute         peatom all pe/atom
compute         S water smd/ulsph_stress
compute         D water smd/ulsph_strain_rate

dump            dump_id all custom 100 dump.LAMMPS id type x y &
                fx fy vx vy c_eint c_contact_radius mol &
                radius c_vol c_rho proc c_peatom c_S[1] c_S[2] c_S[4] c_D[1] c_D[2] c_D[4]
dump_modify     dump_id first yes


####################################################################################################
# STATUS OUTPUT
####################################################################################################
compute         alleint all reduce sum c_eint
compute         wvol water smd/volume
variable        etot equal pe+ke+c_alleint+f_gfix # total energy of the system
thermo          100
thermo_style    custom step ke pe v_etot c_alleint f_dtfix dt c_wvol
thermo_modify   lost ignore

####################################################################################################
# RUN SIMULATION
####################################################################################################
run             1
fix             balance_fix all balance 1000 0.9 rcb # load balancing for MPI
run             40000
#
#
